AES/1_4_4/ssaes_r1-20_c4_rw1_e4_f0_k1-20_aes_canon_box_aes_mc_bidirectional/ExperimentMinisat_r12_k13cnf_2011-11-18-121505/Result
WARNING: for repeatability, setting FPU to use double precision
============================[ Problem Statistics ]=============================
|                                                                             |
|  Number of variables:          1872                                         |
|  Number of clauses:           11068                                         |
|  Parse time:                   0.00 s                                       |
|  Eliminated clauses:           0.02 Mb                                      |
|  Simplification time:          0.01 s                                       |
|                                                                             |
=============================[ Search Statistics ]==============================
| Conflicts  |          ORIGINAL         |          LEARNT          | Progress |
|            |    Vars  Clauses Literals |    Limit  Clauses Lit/Cl |          |
================================================================================
|        100 |    1524    10084    31300 |     3697      100     25 |  4.274 % |
|        250 |    1524    10084    31300 |     4067      250     34 |  4.274 % |
|        475 |    1524    10084    31300 |     4473      475     33 |  4.274 % |
|        812 |    1524    10084    31300 |     4921      812     30 |  4.274 % |
|       1318 |    1524    10084    31300 |     5413     1318     29 |  4.274 % |
|       2077 |    1524    10084    31300 |     5954     2077     27 |  4.274 % |
|       3216 |    1524    10084    31300 |     6550     3216     27 |  4.274 % |
|       4924 |    1524    10084    31300 |     7205     4924     28 |  4.274 % |
|       7486 |    1524    10084    31300 |     7925     3787     25 |  4.274 % |
|      11330 |    1524    10084    31300 |     8718     7631     26 |  4.274 % |
|      17096 |    1524    10084    31300 |     9590     4542     21 |  4.274 % |
|      25745 |    1524    10084    31300 |    10549     8319     21 |  4.274 % |
|      38719 |    1524    10084    31300 |    11604    10606     21 |  4.274 % |
|      58180 |    1524    10084    31300 |    12764     6560     20 |  4.274 % |
|      87372 |    1524    10084    31300 |    14041     9894     19 |  4.274 % |
===============================================================================
restarts              : 317
conflicts             : 118300         (7585 /sec)
decisions             : 130086         (0.00 % random) (8341 /sec)
propagations          : 92988298       (5962459 /sec)
conflict literals     : 2811925        (68.61 % deleted)
Memory used           : 9.00 MB
CPU time              : 15.5956 s

SATISFIABLE
